40
1 0 17
2 0 20
2 1 3
3 0 25
3 1 1
3 2 20
4 0 32
4 1 7
4 2 9
4 3 24
5 0 28
5 1 30
5 2 26
5 3 39
5 4 4
6 0 27
6 1 10
6 2 32
6 3 4
6 4 37
6 5 38
7 0 33
7 1 11
7 2 21
7 3 38
7 4 25
7 5 35
7 6 8
8 0 35
8 1 8
8 2 24
8 3 12
8 4 8
8 5 28
8 6 21
8 7 17
9 0 22
9 1 4
9 2 5
9 3 1
9 4 40
9 5 8
9 6 4
9 7 26
9 8 6
10 0 23
10 1 39
10 2 37
10 3 40
10 4 23
10 5 2
10 6 15
10 7 26
10 8 18
10 9 23
11 0 20
11 1 10
11 2 24
11 3 6
11 4 30
11 5 7
11 6 24
11 7 29
11 8 36
11 9 29
11 10 29
12 0 26
12 1 31
12 2 14
12 3 31
12 4 24
12 5 10
12 6 3
12 7 36
12 8 20
12 9 16
12 10 9
12 11 7
13 0 28
13 1 19
13 2 10
13 3 22
13 4 34
13 5 28
13 6 40
13 7 12
13 8 22
13 9 40
13 10 15
13 11 1
13 12 17
14 0 35
14 1 28
14 2 32
14 3 17
14 4 3
14 5 10
14 6 11
14 7 16
14 8 8
14 9 13
14 10 19
14 11 38
14 12 33
14 13 11
15 0 37
15 1 40
15 2 6
15 3 1
15 4 8
15 5 21
15 6 1
15 7 7
15 8 28
15 9 32
15 10 5
15 11 36
15 12 5
15 13 26
15 14 21
16 0 30
16 1 2
16 2 23
16 3 22
16 4 23
16 5 34
16 6 14
16 7 17
16 8 30
16 9 11
16 10 26
16 11 20
16 12 30
16 13 31
16 14 4
16 15 3
17 0 28
17 1 38
17 2 15
17 3 25
17 4 5
17 5 12
17 6 3
17 7 16
17 8 24
17 9 19
17 10 25
17 11 34
17 12 20
17 13 17
17 14 39
17 15 21
17 16 4
18 0 13
18 1 19
18 2 6
18 3 12
18 4 7
18 5 36
18 6 17
18 7 1
18 8 11
18 9 7
18 10 4
18 11 10
18 12 12
18 13 1
18 14 38
18 15 23
18 16 9
18 17 38
19 0 25
19 1 16
19 2 33
19 3 15
19 4 1
19 5 5
19 6 4
19 7 11
19 8 17
19 9 11
19 10 1
19 11 6
19 12 35
19 13 7
19 14 17
19 15 6
19 16 30
19 17 22
19 18 2
20 0 12
20 1 31
20 2 13
20 3 32
20 4 19
20 5 23
20 6 25
20 7 2
20 8 29
20 9 26
20 10 12
20 11 8
20 12 23
20 13 14
20 14 35
20 15 4
20 16 23
20 17 12
20 18 33
20 19 3
21 0 2
21 1 9
21 2 37
21 3 12
21 4 10
21 5 14
21 6 36
21 7 10
21 8 21
21 9 21
21 10 8
21 11 39
21 12 19
21 13 35
21 14 22
21 15 35
21 16 28
21 17 36
21 18 32
21 19 39
21 20 5
22 0 33
22 1 6
22 2 34
22 3 19
22 4 35
22 5 29
22 6 37
22 7 2
22 8 39
22 9 11
22 10 18
22 11 10
22 12 31
22 13 6
22 14 31
22 15 29
22 16 37
22 17 1
22 18 17
22 19 14
22 20 9
22 21 8
23 0 7
23 1 36
23 2 10
23 3 39
23 4 11
23 5 25
23 6 1
23 7 33
23 8 9
23 9 35
23 10 3
23 11 16
23 12 3
23 13 8
23 14 18
23 15 5
23 16 40
23 17 5
23 18 26
23 19 17
23 20 16
23 21 10
23 22 8
24 0 27
24 1 15
24 2 11
24 3 6
24 4 9
24 5 29
24 6 5
24 7 21
24 8 17
24 9 36
24 10 21
24 11 35
24 12 6
24 13 2
24 14 19
24 15 4
24 16 24
24 17 25
24 18 18
24 19 15
24 20 3
24 21 5
24 22 18
24 23 40
25 0 6
25 1 9
25 2 4
25 3 3
25 4 19
25 5 19
25 6 15
25 7 24
25 8 4
25 9 37
25 10 30
25 11 30
25 12 35
25 13 18
25 14 3
25 15 19
25 16 25
25 17 33
25 18 29
25 19 26
25 20 38
25 21 37
25 22 33
25 23 1
25 24 36
26 0 4
26 1 34
26 2 18
26 3 37
26 4 38
26 5 4
26 6 21
26 7 27
26 8 8
26 9 6
26 10 24
26 11 35
26 12 4
26 13 29
26 14 22
26 15 34
26 16 21
26 17 5
26 18 32
26 19 3
26 20 34
26 21 35
26 22 33
26 23 13
26 24 24
26 25 7
27 0 31
27 1 12
27 2 25
27 3 23
27 4 34
27 5 9
27 6 39
27 7 27
27 8 6
27 9 13
27 10 27
27 11 40
27 12 19
27 13 16
27 14 26
27 15 8
27 16 25
27 17 4
27 18 38
27 19 8
27 20 13
27 21 2
27 22 36
27 23 13
27 24 11
27 25 18
27 26 23
28 0 31
28 1 23
28 2 31
28 3 3
28 4 31
28 5 6
28 6 11
28 7 15
28 8 33
28 9 3
28 10 32
28 11 23
28 12 38
28 13 36
28 14 5
28 15 2
28 16 37
28 17 5
28 18 23
28 19 28
28 20 31
28 21 38
28 22 26
28 23 15
28 24 14
28 25 22
28 26 17
28 27 37
29 0 6
29 1 18
29 2 4
29 3 38
29 4 14
29 5 8
29 6 31
29 7 32
29 8 19
29 9 32
29 10 32
29 11 8
29 12 32
29 13 6
29 14 15
29 15 15
29 16 40
29 17 5
29 18 28
29 19 28
29 20 19
29 21 4
29 22 40
29 23 18
29 24 2
29 25 8
29 26 39
29 27 30
29 28 9
30 0 14
30 1 8
30 2 38
30 3 8
30 4 9
30 5 22
30 6 23
30 7 19
30 8 8
30 9 24
30 10 18
30 11 13
30 12 12
30 13 28
30 14 20
30 15 26
30 16 33
30 17 6
30 18 27
30 19 17
30 20 25
30 21 27
30 22 26
30 23 1
30 24 25
30 25 38
30 26 9
30 27 26
30 28 7
30 29 10
31 0 38
31 1 15
31 2 39
31 3 4
31 4 9
31 5 33
31 6 24
31 7 23
31 8 21
31 9 8
31 10 18
31 11 40
31 12 6
31 13 9
31 14 6
31 15 24
31 16 9
31 17 21
31 18 25
31 19 30
31 20 32
31 21 39
31 22 37
31 23 37
31 24 29
31 25 22
31 26 2
31 27 3
31 28 3
31 29 21
31 30 17
32 0 18
32 1 30
32 2 30
32 3 2
32 4 4
32 5 11
32 6 36
32 7 3
32 8 6
32 9 37
32 10 26
32 11 25
32 12 38
32 13 1
32 14 39
32 15 6
32 16 29
32 17 20
32 18 14
32 19 6
32 20 3
32 21 24
32 22 18
32 23 32
32 24 21
32 25 36
32 26 24
32 27 8
32 28 8
32 29 8
32 30 39
32 31 17
33 0 5
33 1 8
33 2 21
33 3 2
33 4 18
33 5 16
33 6 35
33 7 40
33 8 14
33 9 11
33 10 1
33 11 23
33 12 28
33 13 16
33 14 4
33 15 35
33 16 38
33 17 37
33 18 33
33 19 25
33 20 7
33 21 34
33 22 27
33 23 25
33 24 22
33 25 31
33 26 7
33 27 32
33 28 17
33 29 12
33 30 20
33 31 7
33 32 14
34 0 40
34 1 2
34 2 29
34 3 22
34 4 37
34 5 25
34 6 3
34 7 11
34 8 32
34 9 14
34 10 30
34 11 24
34 12 15
34 13 29
34 14 2
34 15 23
34 16 39
34 17 9
34 18 8
34 19 9
34 20 26
34 21 9
34 22 29
34 23 2
34 24 38
34 25 23
34 26 36
34 27 35
34 28 37
34 29 25
34 30 19
34 31 28
34 32 40
34 33 33
35 0 19
35 1 34
35 2 32
35 3 11
35 4 27
35 5 37
35 6 1
35 7 20
35 8 24
35 9 40
35 10 8
35 11 23
35 12 39
35 13 14
35 14 16
35 15 16
35 16 13
35 17 17
35 18 32
35 19 24
35 20 34
35 21 39
35 22 14
35 23 20
35 24 10
35 25 24
35 26 2
35 27 38
35 28 17
35 29 40
35 30 21
35 31 11
35 32 29
35 33 28
35 34 33
36 0 11
36 1 12
36 2 4
36 3 2
36 4 3
36 5 1
36 6 9
36 7 24
36 8 33
36 9 35
36 10 10
36 11 29
36 12 26
36 13 11
36 14 34
36 15 9
36 16 35
36 17 25
36 18 40
36 19 32
36 20 27
36 21 27
36 22 25
36 23 14
36 24 39
36 25 31
36 26 17
36 27 32
36 28 31
36 29 17
36 30 15
36 31 7
36 32 5
36 33 38
36 34 15
36 35 37
37 0 13
37 1 28
37 2 16
37 3 12
37 4 1
37 5 15
37 6 20
37 7 21
37 8 24
37 9 19
37 10 16
37 11 19
37 12 30
37 13 33
37 14 20
37 15 13
37 16 40
37 17 23
37 18 29
37 19 24
37 20 39
37 21 14
37 22 8
37 23 17
37 24 18
37 25 14
37 26 37
37 27 31
37 28 19
37 29 24
37 30 36
37 31 7
37 32 38
37 33 21
37 34 18
37 35 11
37 36 37
38 0 33
38 1 16
38 2 38
38 3 6
38 4 38
38 5 28
38 6 37
38 7 18
38 8 35
38 9 17
38 10 21
38 11 13
38 12 11
38 13 16
38 14 8
38 15 40
38 16 18
38 17 29
38 18 27
38 19 9
38 20 23
38 21 2
38 22 27
38 23 32
38 24 19
38 25 17
38 26 7
38 27 6
38 28 4
38 29 37
38 30 15
38 31 23
38 32 34
38 33 14
38 34 1
38 35 16
38 36 27
38 37 1
39 0 16
39 1 22
39 2 10
39 3 11
39 4 2
39 5 17
39 6 14
39 7 28
39 8 18
39 9 28
39 10 11
39 11 10
39 12 38
39 13 21
39 14 34
39 15 40
39 16 19
39 17 22
39 18 23
39 19 4
39 20 19
39 21 20
39 22 38
39 23 35
39 24 19
39 25 39
39 26 22
39 27 21
39 28 5
39 29 19
39 30 1
39 31 6
39 32 17
39 33 39
39 34 33
39 35 33
39 36 40
39 37 33
39 38 10
